benchmarks_CP/INST_36x36/55/inst36x36_55_34.dzn
S=6;
start=[|
10,	4,	-1,	19,	-1,	21,	3,	-1,	-1,	-1,	-1,	9,	20,	-1,	-1,	22,	-1,	6,	8,	-1,	-1,	-1,	-1,	23,	25,	-1,	17,	31,	26,	24,	34,	-1,	12,	15,	29,	7|
6,	33,	-1,	3,	-1,	14,	20,	-1,	-1,	4,	15,	-1,	29,	-1,	-1,	-1,	7,	10,	-1,	-1,	22,	2,	-1,	26,	27,	-1,	8,	19,	-1,	-1,	-1,	-1,	-1,	28,	31,	-1|
9,	17,	-1,	-1,	-1,	23,	-1,	25,	11,	12,	-1,	-1,	33,	-1,	34,	31,	26,	-1,	-1,	27,	36,	-1,	-1,	-1,	-1,	4,	22,	-1,	20,	-1,	-1,	-1,	2,	18,	-1,	-1|
-1,	25,	-1,	5,	-1,	34,	-1,	36,	16,	28,	-1,	31,	21,	9,	8,	-1,	-1,	-1,	24,	-1,	3,	-1,	-1,	10,	32,	-1,	-1,	6,	35,	13,	20,	-1,	-1,	22,	27,	14|
2,	-1,	29,	31,	-1,	-1,	19,	-1,	-1,	-1,	26,	33,	-1,	24,	-1,	-1,	25,	1,	-1,	-1,	-1,	-1,	15,	-1,	3,	21,	16,	-1,	-1,	10,	-1,	-1,	-1,	-1,	-1,	9|
13,	27,	-1,	-1,	35,	-1,	32,	30,	22,	21,	23,	-1,	19,	36,	4,	14,	12,	16,	31,	-1,	17,	9,	-1,	28,	-1,	15,	-1,	34,	-1,	2,	-1,	8,	-1,	-1,	-1,	-1|
5,	-1,	33,	1,	6,	-1,	-1,	-1,	-1,	2,	-1,	30,	36,	-1,	19,	7,	9,	13,	-1,	24,	-1,	-1,	-1,	-1,	-1,	3,	10,	-1,	-1,	25,	-1,	-1,	31,	16,	4,	18|
30,	36,	13,	35,	7,	-1,	-1,	28,	18,	23,	33,	1,	-1,	27,	20,	12,	-1,	17,	-1,	21,	-1,	-1,	3,	-1,	-1,	-1,	-1,	14,	2,	15,	11,	22,	24,	10,	-1,	19|
-1,	12,	34,	25,	-1,	-1,	31,	35,	-1,	-1,	-1,	-1,	26,	15,	-1,	29,	11,	-1,	2,	8,	-1,	13,	1,	-1,	-1,	30,	-1,	32,	-1,	19,	6,	5,	-1,	-1,	-1,	-1|
4,	21,	-1,	-1,	-1,	2,	7,	32,	36,	-1,	-1,	-1,	-1,	6,	-1,	5,	10,	25,	-1,	-1,	-1,	26,	30,	-1,	-1,	-1,	-1,	18,	-1,	17,	-1,	-1,	8,	1,	15,	12|
-1,	-1,	16,	-1,	-1,	8,	-1,	-1,	20,	13,	-1,	-1,	-1,	28,	33,	18,	3,	23,	-1,	-1,	12,	35,	-1,	-1,	36,	22,	1,	-1,	-1,	27,	2,	32,	-1,	30,	25,	-1|
-1,	-1,	-1,	23,	-1,	-1,	8,	26,	-1,	19,	-1,	25,	-1,	-1,	2,	-1,	-1,	30,	-1,	11,	18,	-1,	-1,	-1,	7,	-1,	35,	24,	6,	-1,	13,	27,	36,	14,	33,	-1|
-1,	-1,	15,	-1,	9,	11,	29,	-1,	14,	-1,	-1,	-1,	1,	-1,	36,	3,	-1,	-1,	17,	16,	4,	-1,	-1,	-1,	10,	24,	25,	-1,	-1,	30,	-1,	33,	-1,	35,	-1,	20|
27,	-1,	8,	32,	-1,	17,	11,	-1,	31,	5,	3,	-1,	9,	-1,	14,	33,	-1,	29,	-1,	6,	26,	-1,	-1,	-1,	12,	16,	-1,	13,	22,	21,	-1,	-1,	-1,	24,	19,	30|
1,	30,	-1,	36,	2,	33,	26,	10,	12,	22,	16,	18,	-1,	11,	25,	21,	-1,	-1,	15,	23,	8,	14,	-1,	-1,	31,	-1,	-1,	35,	29,	-1,	4,	3,	34,	9,	-1,	-1|
28,	-1,	-1,	10,	-1,	22,	-1,	-1,	-1,	35,	-1,	-1,	32,	-1,	23,	20,	30,	18,	11,	-1,	-1,	33,	-1,	25,	15,	-1,	3,	8,	-1,	-1,	-1,	6,	-1,	12,	-1,	31|
-1,	-1,	31,	-1,	-1,	25,	21,	20,	-1,	-1,	13,	8,	-1,	10,	-1,	-1,	6,	27,	29,	22,	30,	-1,	34,	-1,	-1,	28,	-1,	-1,	17,	9,	14,	-1,	-1,	32,	2,	5|
34,	24,	14,	6,	21,	-1,	-1,	23,	-1,	30,	-1,	32,	-1,	-1,	16,	-1,	-1,	-1,	20,	-1,	10,	31,	-1,	27,	-1,	-1,	2,	11,	-1,	-1,	1,	-1,	15,	8,	36,	28|
31,	1,	-1,	18,	-1,	-1,	9,	-1,	29,	27,	28,	-1,	5,	-1,	6,	17,	15,	-1,	30,	26,	-1,	24,	-1,	19,	16,	25,	14,	12,	10,	-1,	32,	35,	20,	-1,	8,	-1|
11,	-1,	-1,	8,	10,	-1,	1,	34,	-1,	-1,	-1,	20,	23,	19,	-1,	36,	2,	-1,	27,	-1,	14,	12,	4,	7,	-1,	35,	-1,	17,	-1,	22,	-1,	-1,	28,	-1,	9,	16|
25,	9,	5,	33,	-1,	-1,	-1,	8,	-1,	7,	-1,	4,	-1,	16,	-1,	-1,	27,	24,	3,	-1,	29,	11,	-1,	22,	26,	-1,	34,	15,	31,	-1,	36,	21,	6,	-1,	-1,	-1|
21,	20,	35,	-1,	14,	-1,	12,	18,	5,	-1,	-1,	23,	8,	33,	29,	4,	1,	-1,	25,	36,	34,	17,	-1,	32,	-1,	-1,	-1,	-1,	-1,	6,	-1,	30,	-1,	26,	3,	-1|
-1,	28,	-1,	17,	23,	-1,	6,	-1,	-1,	-1,	-1,	-1,	-1,	7,	-1,	-1,	-1,	-1,	10,	-1,	-1,	20,	-1,	2,	19,	-1,	29,	-1,	3,	8,	-1,	-1,	1,	4,	11,	25|
-1,	2,	-1,	-1,	-1,	3,	10,	-1,	17,	14,	-1,	-1,	-1,	26,	-1,	-1,	-1,	-1,	-1,	9,	-1,	-1,	8,	-1,	-1,	-1,	-1,	-1,	1,	28,	24,	-1,	13,	27,	-1,	33|
-1,	7,	18,	2,	-1,	32,	35,	-1,	-1,	-1,	-1,	22,	-1,	30,	17,	1,	8,	11,	-1,	25,	-1,	4,	20,	6,	-1,	-1,	21,	3,	-1,	36,	-1,	28,	5,	23,	16,	29|
35,	11,	-1,	-1,	-1,	-1,	-1,	2,	23,	32,	8,	-1,	-1,	5,	21,	16,	-1,	9,	12,	-1,	15,	27,	-1,	1,	-1,	19,	-1,	10,	4,	29,	17,	25,	-1,	-1,	20,	24|
-1,	-1,	25,	-1,	-1,	-1,	18,	9,	3,	10,	-1,	11,	7,	23,	35,	-1,	-1,	4,	-1,	19,	32,	-1,	-1,	-1,	-1,	17,	13,	2,	-1,	31,	-1,	-1,	26,	21,	34,	-1|
-1,	-1,	22,	21,	-1,	-1,	-1,	19,	26,	25,	24,	12,	-1,	-1,	-1,	32,	18,	-1,	23,	-1,	35,	-1,	10,	-1,	-1,	-1,	-1,	-1,	-1,	5,	-1,	15,	-1,	36,	-1,	4|
36,	29,	17,	-1,	-1,	15,	-1,	-1,	-1,	1,	20,	6,	2,	12,	26,	-1,	-1,	-1,	13,	28,	-1,	-1,	31,	-1,	-1,	18,	-1,	25,	-1,	35,	27,	14,	22,	-1,	-1,	8|
-1,	10,	9,	-1,	31,	-1,	36,	29,	-1,	-1,	-1,	-1,	22,	3,	27,	-1,	-1,	20,	21,	-1,	5,	8,	11,	30,	6,	-1,	-1,	16,	-1,	1,	18,	-1,	7,	-1,	35,	-1|
20,	-1,	11,	7,	1,	4,	-1,	12,	10,	-1,	21,	13,	27,	-1,	9,	-1,	-1,	-1,	-1,	31,	25,	5,	-1,	18,	8,	-1,	15,	28,	36,	-1,	22,	19,	35,	6,	-1,	32|
24,	-1,	2,	-1,	17,	27,	33,	4,	-1,	-1,	-1,	26,	10,	21,	-1,	-1,	28,	36,	-1,	-1,	19,	-1,	-1,	13,	-1,	6,	-1,	-1,	-1,	-1,	-1,	-1,	25,	29,	-1,	15|
-1,	16,	10,	-1,	26,	-1,	14,	11,	34,	20,	-1,	-1,	-1,	18,	7,	24,	-1,	5,	-1,	29,	6,	-1,	22,	-1,	35,	-1,	27,	-1,	-1,	-1,	-1,	17,	4,	3,	-1,	2|
19,	-1,	-1,	-1,	15,	-1,	25,	-1,	28,	-1,	29,	35,	-1,	-1,	12,	-1,	-1,	2,	-1,	20,	21,	7,	24,	33,	-1,	-1,	23,	1,	-1,	4,	16,	-1,	10,	-1,	18,	26|
29,	18,	23,	30,	33,	36,	15,	16,	8,	9,	6,	-1,	3,	25,	1,	19,	-1,	-1,	34,	17,	28,	-1,	-1,	11,	2,	-1,	-1,	-1,	-1,	-1,	-1,	-1,	-1,	20,	-1,	-1|
8,	-1,	21,	28,	-1,	-1,	-1,	1,	-1,	-1,	18,	17,	34,	-1,	13,	-1,	-1,	26,	-1,	30,	-1,	15,	-1,	-1,	5,	10,	-1,	29,	-1,	-1,	9,	36,	14,	33,	7,	-1|];
